data/solutions/recovery/degenerate/moderate/flexible/degenerate_moderate_instance1/28.sol
Elapsed time: 0.08
Upper bound: 237276.0
Planning weighted value: 1659364.0
C[0]=237276.0
C[1]=237247.0
C[2]=236613.0
y[0]=1
y[1]=2
y[2]=2
y[3]=1
y[4]=1
y[5]=1
y[6]=1
y[7]=2
y[8]=1
y[9]=2
y[10]=0
y[11]=2
y[12]=0
y[13]=1
y[14]=2
y[15]=1
y[16]=0
y[17]=0
y[18]=2
y[19]=1
y[20]=0
y[21]=2
