data/solutions/recovery/degenerate/moderate/flexible/degenerate_moderate_instance1/28.log

Log started (V12.6.3.0) Sat Apr 21 11:01:59 2018

New value for default parallel thread count: 1

Problem '/tmp/tmpQzkekM.pyomo.lp' read.
Read time = 0.00 sec. (0.02 ticks)

Problem name         : /tmp/tmpQzkekM.pyomo.lp
Objective sense      : Minimize
Variables            :      71  [Nneg: 1,  Binary: 66,  General Integer: 4]
Objective nonzeros   :       1
Linear constraints   :      51  [Less: 25,  Equal: 26]
  Nonzeros           :    1019
  RHS nonzeros       :      45

Variables            : Min LB: 0.000000         Max UB: 1.000000       
Objective nonzeros   : Min   : 1.000000         Max   : 1.000000       
Linear constraints   :
  Nonzeros           : Min   : 1.000000         Max   : 93707.00       
  RHS nonzeros       : Min   : 1.000000         Max   : 3.000000       
Tried aggregator 2 times.
MIP Presolve eliminated 22 rows and 3 columns.
Aggregator did 4 substitutions.
Reduced MIP has 25 rows, 64 columns, and 167 nonzeros.
Reduced MIP has 63 binaries, 1 generals, 0 SOSs, and 0 indicators.
Presolve time = 0.00 sec. (0.42 ticks)
Found incumbent of value 711136.000000 after 0.00 sec. (0.63 ticks)
Probing time = 0.00 sec. (0.04 ticks)
Cover probing fixed 0 vars, tightened 6 bounds.
Tried aggregator 1 time.
Reduced MIP has 25 rows, 64 columns, and 167 nonzeros.
Reduced MIP has 63 binaries, 1 generals, 0 SOSs, and 0 indicators.
Presolve time = 0.00 sec. (0.10 ticks)
Probing time = 0.00 sec. (0.03 ticks)
Clique table members: 21.
MIP emphasis: balance optimality and feasibility.
MIP search method: dynamic search.
Parallel mode: none, using 1 thread.
Root relaxation solution time = 0.00 sec. (0.05 ticks)

        Nodes                                         Cuts/
   Node  Left     Objective  IInf  Best Integer    Best Bound    ItCnt     Gap

*     0+    0                       711136.0000    93707.0000            86.82%
      0     0   237045.3333     4   711136.0000   237045.3333        4   66.67%
*     0+    0                       267122.0000   237045.3333            11.26%
      0     0   237046.0000     6   267122.0000      Fract: 3       11   11.26%
*     0+    0                       244972.0000   237046.0000             3.24%
      0     0   237046.0000    10   244972.0000       Cuts: 7       24    3.24%
*     0+    0                       243494.0000   237046.0000             2.65%
      0     2   237046.0000     3   243494.0000   237046.0000       24    2.65%
Elapsed time = 0.01 sec. (2.45 ticks, tree = 0.01 MB, solutions = 3)
*    37    25      integral     0   241568.0000   237046.0000      155    1.87%
*    47    25      integral     0   239617.0000   237046.0000      182    1.07%
*    48    24      integral     0   238777.0000   237046.0000      184    0.72%
*    53    20      integral     0   238106.0000   237046.0000      200    0.45%
*   120    34      integral     0   237982.0000   237046.0000      428    0.39%
*   480+   77                       237343.0000   237046.0000             0.13%
*   920    23      integral     0   237276.0000   237046.0000     3363    0.10%

Cover cuts applied:  39
Gomory fractional cuts applied:  1

Root node processing (before b&c):
  Real time             =    0.01 sec. (2.45 ticks)
Sequential b&c:
  Real time             =    0.05 sec. (36.98 ticks)
                          ------------
Total (root+branch&cut) =    0.05 sec. (39.43 ticks)

Solution pool: 10 solutions saved.

MIP - Integer optimal solution:  Objective =  2.3727600000e+05
Solution time =    0.05 sec.  Iterations = 3465  Nodes = 966
Deterministic time = 39.44 ticks  (747.83 ticks/sec)


Incumbent solution written to file '/tmp/tmpnq5cot.cplex.sol'.
